\ENCODING=ISO-8859-1
\Problem name: IloCplex

Minimize
 OBJ: Cap#72
Subject To
 c1:  f(1,1)#0  = 1
 c2:  f(2,3)#14 + f(2,8)#19  = 1
 c3:  f(3,1)#24  = 1
 c4:  f(4,3)#38 + f(4,8)#43  = 1
 c5:  f(5,3)#50 + f(5,8)#55  = 1
 c6:  f(6,10)#69  = 1
 c7:  f(1,7)#6  = 0
 c8:  f(2,2)#13 + f(2,9)#20  = 0
 c9:  f(3,7)#30  = 0
 c10: f(4,2)#37 + f(4,9)#44  = 0
 c11: f(5,2)#49 + f(5,9)#56  = 0
 c12: f(6,4)#63  = 0
 c13: f(1,5)#4  = 1
 c14: f(2,5)#16  = 1
 c15: f(3,2)#25 + f(3,9)#32  = 1
 c16: f(4,4)#39  = 1
 c17: f(5,6)#53  = 1
 c18: f(6,6)#65  = 1
 c19: f(1,11)#10  = 0
 c20: f(2,11)#22  = 0
 c21: f(3,3)#26 + f(3,8)#31  = 0
 c22: f(4,10)#45  = 0
 c23: f(5,12)#59  = 0
 c24: f(6,12)#71  = 0
 c25: f(1,1)#0 - f(1,2)#1 - f(1,5)#4 - f(1,7)#6 + f(1,8)#7 + f(1,11)#10  = 0
 c26: f(1,2)#1 - f(1,3)#2 - f(1,8)#7 + f(1,9)#8  = 0
 c27: f(1,3)#2 - f(1,4)#3 - f(1,6)#5 - f(1,9)#8 + f(1,10)#9 + f(1,12)#11  = 0
 c28: f(1,4)#3 - f(1,10)#9  = 0
 c29: f(1,6)#5 - f(1,12)#11  = 0
 c30: - f(2,1)#12 + f(2,7)#18  = 0
 c31: f(2,1)#12 - f(2,2)#13 - f(2,5)#16 - f(2,7)#18 + f(2,8)#19 + f(2,11)#22
       = 0
 c32: f(2,3)#14 - f(2,4)#15 - f(2,6)#17 - f(2,9)#20 + f(2,10)#21 + f(2,12)#23
       = 0
 c33: f(2,4)#15 - f(2,10)#21  = 0
 c34: f(2,6)#17 - f(2,12)#23  = 0
 c35: f(3,1)#24 - f(3,2)#25 - f(3,5)#28 - f(3,7)#30 + f(3,8)#31 + f(3,11)#34
       = 0
 c36: f(3,3)#26 - f(3,4)#27 - f(3,6)#29 - f(3,9)#32 + f(3,10)#33 + f(3,12)#35
       = 0
 c37: f(3,4)#27 - f(3,10)#33  = 0
 c38: f(3,5)#28 - f(3,11)#34  = 0
 c39: f(3,6)#29 - f(3,12)#35  = 0
 c40: - f(4,1)#36 + f(4,7)#42  = 0
 c41: f(4,1)#36 - f(4,2)#37 - f(4,5)#40 - f(4,7)#42 + f(4,8)#43 + f(4,11)#46
       = 0
 c42: f(4,3)#38 - f(4,4)#39 - f(4,6)#41 - f(4,9)#44 + f(4,10)#45 + f(4,12)#47
       = 0
 c43: f(4,5)#40 - f(4,11)#46  = 0
 c44: f(4,6)#41 - f(4,12)#47  = 0
 c45: - f(5,1)#48 + f(5,7)#54  = 0
 c46: f(5,1)#48 - f(5,2)#49 - f(5,5)#52 - f(5,7)#54 + f(5,8)#55 + f(5,11)#58
       = 0
 c47: f(5,3)#50 - f(5,4)#51 - f(5,6)#53 - f(5,9)#56 + f(5,10)#57 + f(5,12)#59
       = 0
 c48: f(5,4)#51 - f(5,10)#57  = 0
 c49: f(5,5)#52 - f(5,11)#58  = 0
 c50: - f(6,1)#60 + f(6,7)#66  = 0
 c51: f(6,1)#60 - f(6,2)#61 - f(6,5)#64 - f(6,7)#66 + f(6,8)#67 + f(6,11)#70
       = 0
 c52: f(6,2)#61 - f(6,3)#62 - f(6,8)#67 + f(6,9)#68  = 0
 c53: f(6,3)#62 - f(6,4)#63 - f(6,6)#65 - f(6,9)#68 + f(6,10)#69 + f(6,12)#71
       = 0
 c54: f(6,5)#64 - f(6,11)#70  = 0
 c55: f(1,1)#0 + f(1,8)#7 + f(1,11)#10 <= 1
 c56: f(1,2)#1 + f(1,9)#8 <= 1
 c57: f(1,3)#2 + f(1,10)#9 + f(1,12)#11 <= 1
 c58: f(1,4)#3 <= 1
 c59: f(1,6)#5 <= 1
 c60: f(2,7)#18 <= 1
 c61: f(2,1)#12 + f(2,8)#19 + f(2,11)#22 <= 1
 c62: f(2,3)#14 + f(2,10)#21 + f(2,12)#23 <= 1
 c63: f(2,4)#15 <= 1
 c64: f(2,6)#17 <= 1
 c65: f(3,1)#24 + f(3,8)#31 + f(3,11)#34 <= 1
 c66: f(3,3)#26 + f(3,10)#33 + f(3,12)#35 <= 1
 c67: f(3,4)#27 <= 1
 c68: f(3,5)#28 <= 1
 c69: f(3,6)#29 <= 1
 c70: f(4,7)#42 <= 1
 c71: f(4,1)#36 + f(4,8)#43 + f(4,11)#46 <= 1
 c72: f(4,3)#38 + f(4,10)#45 + f(4,12)#47 <= 1
 c73: f(4,5)#40 <= 1
 c74: f(4,6)#41 <= 1
 c75: f(5,7)#54 <= 1
 c76: f(5,1)#48 + f(5,8)#55 + f(5,11)#58 <= 1
 c77: f(5,3)#50 + f(5,10)#57 + f(5,12)#59 <= 1
 c78: f(5,4)#51 <= 1
 c79: f(5,5)#52 <= 1
 c80: f(6,7)#66 <= 1
 c81: f(6,1)#60 + f(6,8)#67 + f(6,11)#70 <= 1
 c82: f(6,2)#61 + f(6,9)#68 <= 1
 c83: f(6,3)#62 + f(6,10)#69 + f(6,12)#71 <= 1
 c84: f(6,5)#64 <= 1
 c85: 2 f(1,1)#0 + 2 f(1,7)#6 + 2 f(2,1)#12 + 2 f(2,7)#18 + 2 f(3,1)#24
      + 2 f(3,7)#30 + 2 f(4,1)#36 + 2 f(4,7)#42 + 2 f(5,1)#48 + 2 f(5,7)#54
      + 2 f(6,1)#60 + 2 f(6,7)#66 - Cap#72 <= 0
 c86: 2 f(1,2)#1 + 2 f(1,8)#7 + 2 f(2,2)#13 + 2 f(2,8)#19 + 2 f(3,2)#25
      + 2 f(3,8)#31 + 2 f(4,2)#37 + 2 f(4,8)#43 + 2 f(5,2)#49 + 2 f(5,8)#55
      + 2 f(6,2)#61 + 2 f(6,8)#67 - Cap#72 <= 0
 c87: 2 f(1,3)#2 + 2 f(1,9)#8 + 2 f(2,3)#14 + 2 f(2,9)#20 + 2 f(3,3)#26
      + 2 f(3,9)#32 + 2 f(4,3)#38 + 2 f(4,9)#44 + 2 f(5,3)#50 + 2 f(5,9)#56
      + 2 f(6,3)#62 + 2 f(6,9)#68 - Cap#72 <= 0
 c88: 2 f(1,4)#3 + 2 f(1,10)#9 + 2 f(2,4)#15 + 2 f(2,10)#21 + 2 f(3,4)#27
      + 2 f(3,10)#33 + 2 f(4,4)#39 + 2 f(4,10)#45 + 2 f(5,4)#51 + 2 f(5,10)#57
      + 2 f(6,4)#63 + 2 f(6,10)#69 - Cap#72 <= 0
 c89: 2 f(1,5)#4 + 2 f(1,11)#10 + 2 f(2,5)#16 + 2 f(2,11)#22 + 2 f(3,5)#28
      + 2 f(3,11)#34 + 2 f(4,5)#40 + 2 f(4,11)#46 + 2 f(5,5)#52 + 2 f(5,11)#58
      + 2 f(6,5)#64 + 2 f(6,11)#70 - Cap#72 <= 0
 c90: 2 f(1,6)#5 + 2 f(1,12)#11 + 2 f(2,6)#17 + 2 f(2,12)#23 + 2 f(3,6)#29
      + 2 f(3,12)#35 + 2 f(4,6)#41 + 2 f(4,12)#47 + 2 f(5,6)#53 + 2 f(5,12)#59
      + 2 f(6,6)#65 + 2 f(6,12)#71 - Cap#72 <= 0
 c91: - f(1,1)#0 - f(1,2)#1 - f(1,3)#2 - f(1,4)#3 - f(1,5)#4 - f(1,6)#5
      - f(1,7)#6 - f(1,8)#7 - f(1,9)#8 - f(1,10)#9 - f(1,11)#10 - f(1,12)#11
      >= -3
 c92: - f(2,1)#12 - f(2,2)#13 - f(2,3)#14 - f(2,4)#15 - f(2,5)#16 - f(2,6)#17
      - f(2,7)#18 - f(2,8)#19 - f(2,9)#20 - f(2,10)#21 - f(2,11)#22
      - f(2,12)#23 >= -3
 c93: - f(3,1)#24 - f(3,2)#25 - f(3,3)#26 - f(3,4)#27 - f(3,5)#28 - f(3,6)#29
      - f(3,7)#30 - f(3,8)#31 - f(3,9)#32 - f(3,10)#33 - f(3,11)#34
      - f(3,12)#35 >= -3
 c94: - f(4,1)#36 - f(4,2)#37 - f(4,3)#38 - f(4,4)#39 - f(4,5)#40 - f(4,6)#41
      - f(4,7)#42 - f(4,8)#43 - f(4,9)#44 - f(4,10)#45 - f(4,11)#46
      - f(4,12)#47 >= -3
 c95: - f(5,1)#48 - f(5,2)#49 - f(5,3)#50 - f(5,4)#51 - f(5,5)#52 - f(5,6)#53
      - f(5,7)#54 - f(5,8)#55 - f(5,9)#56 - f(5,10)#57 - f(5,11)#58
      - f(5,12)#59 >= -3
 c96: - f(6,1)#60 - f(6,2)#61 - f(6,3)#62 - f(6,4)#63 - f(6,5)#64 - f(6,6)#65
      - f(6,7)#66 - f(6,8)#67 - f(6,9)#68 - f(6,10)#69 - f(6,11)#70
      - f(6,12)#71 >= -3
 c97: f(1,1)#0 + f(1,5)#4 + f(1,7)#6 + f(1,11)#10 + f(2,2)#13 + f(2,5)#16
      + f(2,8)#19 + f(2,11)#22 + f(3,1)#24 + f(3,2)#25 + f(3,7)#30 + f(3,8)#31
      <= 5
 c98: f(4,3)#38 + f(4,4)#39 + f(4,9)#44 + f(4,10)#45 + f(5,3)#50 + f(5,6)#53
      + f(5,9)#56 + f(5,12)#59 + f(6,4)#63 + f(6,6)#65 + f(6,10)#69
      + f(6,12)#71 <= 5
Bounds
 0 <= f(1,1)#0 <= 1
 0 <= f(1,2)#1 <= 1
 0 <= f(1,3)#2 <= 1
 0 <= f(1,4)#3 <= 1
 0 <= f(1,5)#4 <= 1
 0 <= f(1,6)#5 <= 1
 0 <= f(1,7)#6 <= 1
 0 <= f(1,8)#7 <= 1
 0 <= f(1,9)#8 <= 1
 0 <= f(1,10)#9 <= 1
 0 <= f(1,11)#10 <= 1
 0 <= f(1,12)#11 <= 1
 0 <= f(2,1)#12 <= 1
 0 <= f(2,2)#13 <= 1
 0 <= f(2,3)#14 <= 1
 0 <= f(2,4)#15 <= 1
 0 <= f(2,5)#16 <= 1
 0 <= f(2,6)#17 <= 1
 0 <= f(2,7)#18 <= 1
 0 <= f(2,8)#19 <= 1
 0 <= f(2,9)#20 <= 1
 0 <= f(2,10)#21 <= 1
 0 <= f(2,11)#22 <= 1
 0 <= f(2,12)#23 <= 1
 0 <= f(3,1)#24 <= 1
 0 <= f(3,2)#25 <= 1
 0 <= f(3,3)#26 <= 1
 0 <= f(3,4)#27 <= 1
 0 <= f(3,5)#28 <= 1
 0 <= f(3,6)#29 <= 1
 0 <= f(3,7)#30 <= 1
 0 <= f(3,8)#31 <= 1
 0 <= f(3,9)#32 <= 1
 0 <= f(3,10)#33 <= 1
 0 <= f(3,11)#34 <= 1
 0 <= f(3,12)#35 <= 1
 0 <= f(4,1)#36 <= 1
 0 <= f(4,2)#37 <= 1
 0 <= f(4,3)#38 <= 1
 0 <= f(4,4)#39 <= 1
 0 <= f(4,5)#40 <= 1
 0 <= f(4,6)#41 <= 1
 0 <= f(4,7)#42 <= 1
 0 <= f(4,8)#43 <= 1
 0 <= f(4,9)#44 <= 1
 0 <= f(4,10)#45 <= 1
 0 <= f(4,11)#46 <= 1
 0 <= f(4,12)#47 <= 1
 0 <= f(5,1)#48 <= 1
 0 <= f(5,2)#49 <= 1
 0 <= f(5,3)#50 <= 1
 0 <= f(5,4)#51 <= 1
 0 <= f(5,5)#52 <= 1
 0 <= f(5,6)#53 <= 1
 0 <= f(5,7)#54 <= 1
 0 <= f(5,8)#55 <= 1
 0 <= f(5,9)#56 <= 1
 0 <= f(5,10)#57 <= 1
 0 <= f(5,11)#58 <= 1
 0 <= f(5,12)#59 <= 1
 0 <= f(6,1)#60 <= 1
 0 <= f(6,2)#61 <= 1
 0 <= f(6,3)#62 <= 1
 0 <= f(6,4)#63 <= 1
 0 <= f(6,5)#64 <= 1
 0 <= f(6,6)#65 <= 1
 0 <= f(6,7)#66 <= 1
 0 <= f(6,8)#67 <= 1
 0 <= f(6,9)#68 <= 1
 0 <= f(6,10)#69 <= 1
 0 <= f(6,11)#70 <= 1
 0 <= f(6,12)#71 <= 1
      Cap#72 >= 0
Binaries
 f(1,1)#0  f(1,2)#1  f(1,3)#2  f(1,4)#3  f(1,5)#4  f(1,6)#5  f(1,7)#6 
 f(1,8)#7  f(1,9)#8  f(1,10)#9  f(1,11)#10  f(1,12)#11  f(2,1)#12  f(2,2)#13 
 f(2,3)#14  f(2,4)#15  f(2,5)#16  f(2,6)#17  f(2,7)#18  f(2,8)#19  f(2,9)#20 
 f(2,10)#21  f(2,11)#22  f(2,12)#23  f(3,1)#24  f(3,2)#25  f(3,3)#26 
 f(3,4)#27  f(3,5)#28  f(3,6)#29  f(3,7)#30  f(3,8)#31  f(3,9)#32  f(3,10)#33 
 f(3,11)#34  f(3,12)#35  f(4,1)#36  f(4,2)#37  f(4,3)#38  f(4,4)#39  f(4,5)#40 
 f(4,6)#41  f(4,7)#42  f(4,8)#43  f(4,9)#44  f(4,10)#45  f(4,11)#46 
 f(4,12)#47  f(5,1)#48  f(5,2)#49  f(5,3)#50  f(5,4)#51  f(5,5)#52  f(5,6)#53 
 f(5,7)#54  f(5,8)#55  f(5,9)#56  f(5,10)#57  f(5,11)#58  f(5,12)#59 
 f(6,1)#60  f(6,2)#61  f(6,3)#62  f(6,4)#63  f(6,5)#64  f(6,6)#65  f(6,7)#66 
 f(6,8)#67  f(6,9)#68  f(6,10)#69  f(6,11)#70  f(6,12)#71 
Generals
 Cap#72 
End
